
-3.72
-3.56
-3.48
-3.36
-3.28
-3.16
-3.12
-3.12
-3.08
-2.92
-2.88
-2.8
-2.8
-2.8
-2.76
-2.72
-2.56
-2.52
-2.48
-2.48
-0.2
-0.08
-0.08
-0.08
-0.08
-0.08
-0.08
-0.08
-0.08
-0.08
-0.08
-0.08
-0.08
-0.08
-0.08
-0.08